0 108 
1 112 
2 116 
3 117 
4 117 
5 117 
6 118 
7 118 
8 116 
9 114 
10 114 
11 114 
12 114 
13 113 
14 114 
15 113 
16 112 
17 110 
18 108 
19 109 
20 111 
21 109 
22 109 
23 108 
24 106 
25 107 
26 109 
27 108 
28 106 
29 108 
30 107 
31 105 
32 103 
33 102 
34 101 
35 102 
36 100 
37 100 
38 100 
39 98 
40 97 
41 99 
42 98 
43 98 
44 96 
45 94 
46 97 
47 97 
48 94 
49 94 
50 91 
51 90 
52 89 
53 88 
54 86 
55 83 
56 81 
57 79 
58 80 
59 78 
60 78 
61 77 
62 75 
63 75 
64 74 
65 72 
66 73 
67 72 
68 71 
69 68 
70 67 
71 66 
72 65 
73 64 
74 61 
75 62 
76 60 
77 58 
78 57 
79 58 
80 57 
81 58 
82 64 
83 60 
84 56 
85 55 
86 50 
87 47 
88 48 
89 46 
90 43 
91 44 
92 47 
93 44 
94 42 
95 42 
96 41 
97 38 
98 34 
99 31 
100 35 
101 34 
102 34 
103 35 
104 34 
105 33 
106 34 
107 33 
108 32 
109 34 
110 34 
111 32 
112 32 
113 30 
114 29 
115 29 
116 28 
117 26 
118 23 
119 21 
120 20 
121 19 
122 19 
123 18 
124 16 
125 15 
126 14 
127 13 
128 11 
129 12 
130 12 
131 11 
132 10 
133 9 
134 8 
135 7 
136 6 
137 2 
138 1 
139 1 
140 0 
141 0 

